

******************************************************************************
This program contains Ipopt, a library for large-scale nonlinear optimization.
 Ipopt is released as open source code under the Eclipse Public License (EPL).
         For more information visit https://github.com/coin-or/Ipopt
******************************************************************************

This is Ipopt version 3.14.11, running with linear solver MUMPS 5.5.1.

Number of nonzeros in equality constraint Jacobian...:       12
Number of nonzeros in inequality constraint Jacobian.:        0
Number of nonzeros in Lagrangian Hessian.............:       78

Total number of variables............................:       12
                     variables with only lower bounds:        0
                variables with lower and upper bounds:       12
                     variables with only upper bounds:        0
Total number of equality constraints.................:        1
Total number of inequality constraints...............:        0
        inequality constraints with only lower bounds:        0
   inequality constraints with lower and upper bounds:        0
        inequality constraints with only upper bounds:        0

iter    objective    inf_pr   inf_du lg(mu)  ||d||  lg(rg) alpha_du alpha_pr  ls
   0  3.4469948e-02 0.00e+00 1.88e-02  -1.0 0.00e+00    -  0.00e+00 0.00e+00   0
   1  3.4411398e-02 1.11e-16 1.39e-16  -1.7 1.42e-03    -  1.00e+00 1.00e+00f  1
   2  3.4171581e-02 0.00e+00 5.08e-03  -3.8 5.71e-03    -  9.77e-01 1.00e+00f  1
   3  3.1034313e-02 0.00e+00 1.75e-17  -3.8 2.21e-01    -  1.00e+00 1.00e+00f  1
   4  3.0120740e-02 0.00e+00 8.11e-04  -5.7 6.05e-02    -  8.29e-01 1.00e+00f  1
   5  2.9784941e-02 1.11e-16 1.38e-17  -5.7 4.84e-02    -  1.00e+00 1.00e+00f  1
   6  2.9711323e-02 0.00e+00 1.25e-17  -5.7 7.72e-03    -  1.00e+00 1.00e+00f  1
   7  2.9690301e-02 0.00e+00 2.56e-06  -8.6 3.73e-03    -  9.90e-01 1.00e+00f  1
   8  2.9689265e-02 1.11e-16 1.36e-17  -8.6 2.04e-04    -  1.00e+00 1.00e+00f  1

Number of Iterations....: 8

                                   (scaled)                 (unscaled)
Objective...............:   2.9689264840891127e-02    2.9689264840891127e-02
Dual infeasibility......:   1.3631241663159352e-17    1.3631241663159352e-17
Constraint violation....:   1.1102230246251565e-16    1.1102230246251565e-16
Variable bound violation:   0.0000000000000000e+00    0.0000000000000000e+00
Complementarity.........:   7.6563475600486827e-09    7.6563475600486827e-09
Overall NLP error.......:   7.6563475600486827e-09    7.6563475600486827e-09


Number of objective function evaluations             = 9
Number of objective gradient evaluations             = 9
Number of equality constraint evaluations            = 9
Number of inequality constraint evaluations          = 0
Number of equality constraint Jacobian evaluations   = 9
Number of inequality constraint Jacobian evaluations = 0
Number of Lagrangian Hessian evaluations             = 8
Total seconds in IPOPT                               = 0.005

EXIT: Optimal Solution Found.
 
Ipopt 3.14.11: Optimal Solution Found
